c Lingeling SAT Solver
c 
c Version azf 92032848c138b2f33629ad24394d60a3787a1046
c 
c Copyright (C) 2010-2014 Armin Biere JKU Linz Austria.
c All rights reserved.
c 
c released Don Mai 22 22:08:00 CEST 2014
c compiled Mon Oct  6 05:55:43 PDT 2014
c 
c gcc (Ubuntu 4.8.2-19ubuntu1) 4.8.2
c -Wall -O3 -DNDBLSCR -DNLGLOG -DNDEBUG -DNCHKSOL -DNLGLPICOSAT -DNLGLDRUPLIG
c -DNLGLYALSAT
c Linux ubuntu 3.13.0-32-generic x86_64
c 
c reading input file benchmark-sat/translations/gc-qg.order100-100.cnf
c no embedded options
c found 'p cnf 1000000 148510000' header
c read 1000000 variables, 148510000 clauses, 298000000 literals in 0.00 seconds
c 
c  seconds         irredundant          redundant clauses agility   height
c          variables clauses conflicts large ternary binary    glue         MB
c 
c S    0.0 1000000 148510000         0       0      0     0   0  0.0   0.0 4189
c S    1.0 1000000 148510000         0       0      0     0   0  0.0   0.0 4239
c S    2.0 1000000 148510000         0       0      0     0   0  0.0   0.0 4240
c S    5.1 1000000 148510000         0       0      0     0   0  0.0   0.0 4244
c S  150.6 1000000 148510000         0       0      0     0   0  0.0   0.0 2046
c P  342.9 1000000 148510000         0       0      0     0   0  0.0   0.0 2100
